
<<< setup


<<< generate

Version identifier: 22.1.1.0 | 2022-11-28 | 9160aff4d
CPXPARAM_TimeLimit                               1800
Found incumbent of value 0.000000 after 0.00 sec. (0.03 ticks)
Tried aggregator 1 time.
MIP Presolve eliminated 41 rows and 0 columns.
Reduced MIP has 950 rows, 820 columns, and 3420 nonzeros.
Reduced MIP has 780 binaries, 40 generals, 0 SOSs, and 0 indicators.
Presolve time = 0.00 sec. (1.46 ticks)
Probing time = 0.00 sec. (0.78 ticks)
Tried aggregator 1 time.
Detecting symmetries...
Reduced MIP has 950 rows, 820 columns, and 3420 nonzeros.
Reduced MIP has 780 binaries, 40 generals, 0 SOSs, and 0 indicators.
Presolve time = 0.00 sec. (4.03 ticks)
Probing time = 0.00 sec. (0.83 ticks)
Clique table members: 380.
MIP emphasis: balance optimality and feasibility.
MIP search method: dynamic search.
Parallel mode: deterministic, using up to 8 threads.
Root relaxation solution time = 0.00 sec. (2.54 ticks)

        Nodes                                         Cuts/
   Node  Left     Objective  IInf  Best Integer    Best Bound    ItCnt     Gap

*     0+    0                            0.0000       35.0000              --- 
*     0+    0                            4.0000       35.0000           775.00%
      0     0       35.0000   264        4.0000       35.0000      359  775.00%
      0     0       35.0000    18        4.0000      Cuts: 12      374  775.00%
      0     0       35.0000    18        4.0000      Cuts: 15      404  775.00%
      0     0       35.0000    17        4.0000   ZeroHalf: 8      412  775.00%
*     0+    0                           35.0000       35.0000             0.00%
      0     0        cutoff             35.0000       35.0000      412    0.00%
Elapsed time = 0.05 sec. (80.79 ticks, tree = 0.01 MB, solutions = 3)

Implied bound cuts applied:  7
Mixed integer rounding cuts applied:  6
Zero-half cuts applied:  7
Lift and project cuts applied:  3
Gomory fractional cuts applied:  3

Root node processing (before b&c):
  Real time             =    0.05 sec. (80.84 ticks)
Parallel b&c, 8 threads:
  Real time             =    0.00 sec. (0.00 ticks)
  Sync time (average)   =    0.00 sec.
  Wait time (average)   =    0.00 sec.
                          ------------
Total (root+branch&cut) =    0.05 sec. (80.84 ticks)

<<< solve


OBJECTIVE: 35

<<< post process


<<< done

